\ Model optimization_model
\ LP format - for model browsing. Use MPS format to capture full model detail.
\ Signature: 0x5956b375662ce073
Minimize
  37.56356538213137 evs_power[0,0] + 37.56356538213137 evs_power[0,1]
   + 42.24873260740664 evs_power[1,0] + 42.24873260740664 evs_power[1,1]
   + 49.06598295619246 evs_power[2,0] + 49.06598295619246 evs_power[2,1]
   + 53.13948144141479 evs_power[3,0] + 53.13948144141479 evs_power[3,1]
   + 58.08794076750452 evs_power[4,0] + 58.08794076750452 evs_power[4,1]
   + 61.15683340775584 evs_power[5,0] + 61.15683340775584 evs_power[5,1]
   + 65.19441646661284 evs_power[6,0] + 65.19441646661284 evs_power[6,1]
   + 69.81784209293538 evs_power[7,0] + 69.81784209293538 evs_power[7,1]
   + 71.05709273574487 evs_power[8,0] + 71.05709273574487 evs_power[8,1]
   + 73.96029752690875 evs_power[9,0] + 73.96029752690875 evs_power[9,1]
   + 76.49619508697506 evs_power[10,0] + 76.49619508697506 evs_power[10,1]
   + 76.88807913123389 evs_power[11,0] + 76.88807913123389 evs_power[11,1]
   + 77.69411917979846 evs_power[12,0] + 77.69411917979846 evs_power[12,1]
   + 78.08237398684534 evs_power[13,0] + 78.08237398684534 evs_power[13,1]
   + 79.4391244767811 evs_power[14,0] + 79.4391244767811 evs_power[14,1]
   + 79.5313931303296 evs_power[15,0] + 79.5313931303296 evs_power[15,1]
   + 77.14806220267846 evs_power[16,0] + 77.14806220267846 evs_power[16,1]
   + 77.14085370967653 evs_power[17,0] + 77.14085370967653 evs_power[17,1]
   + 76.20562155242688 evs_power[18,0] + 76.20562155242688 evs_power[18,1]
   + 74.57901169939896 evs_power[19,0] + 74.57901169939896 evs_power[19,1]
   + 72.37351309225011 evs_power[20,0] + 72.37351309225011 evs_power[20,1]
   + 70.15702365947969 evs_power[21,0] + 70.15702365947969 evs_power[21,1]
   + 67.609546216326 evs_power[22,0] + 67.609546216326 evs_power[22,1]
   + 63.7983577159614 evs_power[23,0] + 63.7983577159614 evs_power[23,1]
   + 63.96384555139184 evs_power[24,0] + 63.96384555139184 evs_power[24,1]
   + 60.54994294528763 evs_power[25,0] + 60.54994294528763 evs_power[25,1]
   + 56.75063367835233 evs_power[26,0] + 56.75063367835233 evs_power[26,1]
   + 53.82648110537335 evs_power[27,0] + 53.82648110537335 evs_power[27,1]
   + 48.0758803151795 evs_power[28,0] + 48.0758803151795 evs_power[28,1]
   + 44.61942264085157 evs_power[29,0] + 44.61942264085157 evs_power[29,1]
   + 40.49633015331851 evs_power[30,0] + 40.49633015331851 evs_power[30,1]
   + 34.42217892229336 evs_power[31,0] + 34.42217892229336 evs_power[31,1]
   + 29.40376778938987 evs_power[32,0] + 29.40376778938987 evs_power[32,1]
   + 28.31560679147757 evs_power[33,0] + 28.31560679147757 evs_power[33,1]
   + 21.7460395466585 evs_power[34,0] + 21.7460395466585 evs_power[34,1]
   + 17.32942689502008 evs_power[35,0] + 17.32942689502008 evs_power[35,1]
   + 11.42554559308994 evs_power[36,0] + 11.42554559308994 evs_power[36,1]
   + 5.417170936843874 evs_power[37,0] + 5.417170936843874 evs_power[37,1]
   + 4.631463401954079 evs_power[38,0] + 4.631463401954079 evs_power[38,1]
   - 2.754090971165979 evs_power[39,0] - 2.754090971165979 evs_power[39,1]
   - 5.671795083555505 evs_power[40,0] - 5.671795083555505 evs_power[40,1]
   - 6.999407726761094 evs_power[41,0] - 6.999407726761094 evs_power[41,1]
   - 13.16865689425967 evs_power[42,0] - 13.16865689425967 evs_power[42,1]
   - 14.88160343776104 evs_power[43,0] - 14.88160343776104 evs_power[43,1]
   - 19.27270094508424 evs_power[44,0] - 19.27270094508424 evs_power[44,1]
   - 22.68505287526742 evs_power[45,0] - 22.68505287526742 evs_power[45,1]
   - 25.19694225119376 evs_power[46,0] - 25.19694225119376 evs_power[46,1]
   - 28.14653378946057 evs_power[47,0] - 28.14653378946057 evs_power[47,1]
   - 31.46161261793704 evs_power[48,0] - 31.46161261793704 evs_power[48,1]
   - 30.38211864942382 evs_power[49,0] - 30.38211864942382 evs_power[49,1]
   - 35.90867254450509 evs_power[50,0] - 35.90867254450509 evs_power[50,1]
   - 37.81558879334118 evs_power[51,0] - 37.81558879334118 evs_power[51,1]
   - 38.23014708028298 evs_power[52,0] - 38.23014708028298 evs_power[52,1]
   - 40.04705042377752 evs_power[53,0] - 40.04705042377752 evs_power[53,1]
   - 40.67702274494633 evs_power[54,0] - 40.67702274494633 evs_power[54,1]
   - 40.53348603263888 evs_power[55,0] - 40.53348603263888 evs_power[55,1]
   - 41.36689604404656 evs_power[56,0] - 41.36689604404656 evs_power[56,1]
   - 39.8974788436898 evs_power[57,0] - 39.8974788436898 evs_power[57,1]
   - 39.85533369294681 evs_power[58,0] - 39.85533369294681 evs_power[58,1]
   - 40.36228799809606 evs_power[59,0] - 40.36228799809606 evs_power[59,1]
   - 39.38155131000897 evs_power[60,0] - 39.38155131000897 evs_power[60,1]
   - 38.74743142862133 evs_power[61,0] - 38.74743142862133 evs_power[61,1]
   - 37.69772391665778 evs_power[62,0] - 37.69772391665778 evs_power[62,1]
   - 36.49672664267126 evs_power[63,0] - 36.49672664267126 evs_power[63,1]
   - 36.90152172468237 evs_power[64,0] - 36.90152172468237 evs_power[64,1]
   - 30.73307664268306 evs_power[65,0] - 30.73307664268306 evs_power[65,1]
   - 28.73907206098326 evs_power[66,0] - 28.73907206098326 evs_power[66,1]
   - 28.1963550768631 evs_power[67,0] - 28.1963550768631 evs_power[67,1]
   - 25.96816427344192 evs_power[68,0] - 25.96816427344192 evs_power[68,1]
   - 21.98290262241522 evs_power[69,0] - 21.98290262241522 evs_power[69,1]
   - 21.06962454356565 evs_power[70,0] - 21.06962454356565 evs_power[70,1]
   - 17.51120039777453 evs_power[71,0] - 17.51120039777453 evs_power[71,1]
   - 12.81941103299977 evs_power[72,0] - 12.81941103299977 evs_power[72,1]
   - 9.348681746584038 evs_power[73,0] - 9.348681746584038 evs_power[73,1]
   - 6.811923126990175 evs_power[74,0] - 6.811923126990175 evs_power[74,1]
   - 4.256678204271751 evs_power[75,0] - 4.256678204271751 evs_power[75,1]
   - 5.283483705460476 evs_power[76,0] - 5.283483705460476 evs_power[76,1]
   - 0.5452744576872568 evs_power[77,0]
   - 0.5452744576872568 evs_power[77,1] + 3.361621726599989 evs_power[78,0]
   + 3.361621726599989 evs_power[78,1] + 3.1282551026985 evs_power[79,0]
   + 3.1282551026985 evs_power[79,1] + 8.250156527803071 evs_power[80,0]
   + 8.250156527803071 evs_power[80,1] + 10.57528603008703 evs_power[81,0]
   + 10.57528603008703 evs_power[81,1] + 11.46623901649031 evs_power[82,0]
   + 11.46623901649031 evs_power[82,1] + 13.72173833172326 evs_power[83,0]
   + 13.72173833172326 evs_power[83,1] + 14.1795807433994 evs_power[84,0]
   + 14.1795807433994 evs_power[84,1] + 17.36981908641915 evs_power[85,0]
   + 17.36981908641915 evs_power[85,1] + 17.82061699485411 evs_power[86,0]
   + 17.82061699485411 evs_power[86,1] + 16.61189699515157 evs_power[87,0]
   + 16.61189699515157 evs_power[87,1] + 21.62710386440822 evs_power[88,0]
   + 21.62710386440822 evs_power[88,1] + 21.13762635819359 evs_power[89,0]
   + 21.13762635819359 evs_power[89,1] + 22.23888928805736 evs_power[90,0]
   + 22.23888928805736 evs_power[90,1] + 21.5827667663654 evs_power[91,0]
   + 21.5827667663654 evs_power[91,1] + 22.36236740237725 evs_power[92,0]
   + 22.36236740237725 evs_power[92,1] + 23.57938037856815 evs_power[93,0]
   + 23.57938037856815 evs_power[93,1] + 24.04761114693817 evs_power[94,0]
   + 24.04761114693817 evs_power[94,1] + 25.46376415837315 evs_power[95,0]
   + 25.46376415837315 evs_power[95,1] + 43871.84212614223 Constant + [
   2 evs_power[0,0] ^2 + 4 evs_power[0,0] * evs_power[0,1]
   + 2 evs_power[0,1] ^2 + 2 evs_power[1,0] ^2
   + 4 evs_power[1,0] * evs_power[1,1] + 2 evs_power[1,1] ^2
   + 2 evs_power[2,0] ^2 + 4 evs_power[2,0] * evs_power[2,1]
   + 2 evs_power[2,1] ^2 + 2 evs_power[3,0] ^2
   + 4 evs_power[3,0] * evs_power[3,1] + 2 evs_power[3,1] ^2
   + 2 evs_power[4,0] ^2 + 4 evs_power[4,0] * evs_power[4,1]
   + 2 evs_power[4,1] ^2 + 2 evs_power[5,0] ^2
   + 4 evs_power[5,0] * evs_power[5,1] + 2 evs_power[5,1] ^2
   + 2 evs_power[6,0] ^2 + 4 evs_power[6,0] * evs_power[6,1]
   + 2 evs_power[6,1] ^2 + 2 evs_power[7,0] ^2
   + 4 evs_power[7,0] * evs_power[7,1] + 2 evs_power[7,1] ^2
   + 2 evs_power[8,0] ^2 + 4 evs_power[8,0] * evs_power[8,1]
   + 2 evs_power[8,1] ^2 + 2 evs_power[9,0] ^2
   + 4 evs_power[9,0] * evs_power[9,1] + 2 evs_power[9,1] ^2
   + 2 evs_power[10,0] ^2 + 4 evs_power[10,0] * evs_power[10,1]
   + 2 evs_power[10,1] ^2 + 2 evs_power[11,0] ^2
   + 4 evs_power[11,0] * evs_power[11,1] + 2 evs_power[11,1] ^2
   + 2 evs_power[12,0] ^2 + 4 evs_power[12,0] * evs_power[12,1]
   + 2 evs_power[12,1] ^2 + 2 evs_power[13,0] ^2
   + 4 evs_power[13,0] * evs_power[13,1] + 2 evs_power[13,1] ^2
   + 2 evs_power[14,0] ^2 + 4 evs_power[14,0] * evs_power[14,1]
   + 2 evs_power[14,1] ^2 + 2 evs_power[15,0] ^2
   + 4 evs_power[15,0] * evs_power[15,1] + 2 evs_power[15,1] ^2
   + 2 evs_power[16,0] ^2 + 4 evs_power[16,0] * evs_power[16,1]
   + 2 evs_power[16,1] ^2 + 2 evs_power[17,0] ^2
   + 4 evs_power[17,0] * evs_power[17,1] + 2 evs_power[17,1] ^2
   + 2 evs_power[18,0] ^2 + 4 evs_power[18,0] * evs_power[18,1]
   + 2 evs_power[18,1] ^2 + 2 evs_power[19,0] ^2
   + 4 evs_power[19,0] * evs_power[19,1] + 2 evs_power[19,1] ^2
   + 2 evs_power[20,0] ^2 + 4 evs_power[20,0] * evs_power[20,1]
   + 2 evs_power[20,1] ^2 + 2 evs_power[21,0] ^2
   + 4 evs_power[21,0] * evs_power[21,1] + 2 evs_power[21,1] ^2
   + 2 evs_power[22,0] ^2 + 4 evs_power[22,0] * evs_power[22,1]
   + 2 evs_power[22,1] ^2 + 2 evs_power[23,0] ^2
   + 4 evs_power[23,0] * evs_power[23,1] + 2 evs_power[23,1] ^2
   + 2 evs_power[24,0] ^2 + 4 evs_power[24,0] * evs_power[24,1]
   + 2 evs_power[24,1] ^2 + 2 evs_power[25,0] ^2
   + 4 evs_power[25,0] * evs_power[25,1] + 2 evs_power[25,1] ^2
   + 2 evs_power[26,0] ^2 + 4 evs_power[26,0] * evs_power[26,1]
   + 2 evs_power[26,1] ^2 + 2 evs_power[27,0] ^2
   + 4 evs_power[27,0] * evs_power[27,1] + 2 evs_power[27,1] ^2
   + 2 evs_power[28,0] ^2 + 4 evs_power[28,0] * evs_power[28,1]
   + 2 evs_power[28,1] ^2 + 2 evs_power[29,0] ^2
   + 4 evs_power[29,0] * evs_power[29,1] + 2 evs_power[29,1] ^2
   + 2 evs_power[30,0] ^2 + 4 evs_power[30,0] * evs_power[30,1]
   + 2 evs_power[30,1] ^2 + 2 evs_power[31,0] ^2
   + 4 evs_power[31,0] * evs_power[31,1] + 2 evs_power[31,1] ^2
   + 2 evs_power[32,0] ^2 + 4 evs_power[32,0] * evs_power[32,1]
   + 2 evs_power[32,1] ^2 + 2 evs_power[33,0] ^2
   + 4 evs_power[33,0] * evs_power[33,1] + 2 evs_power[33,1] ^2
   + 2 evs_power[34,0] ^2 + 4 evs_power[34,0] * evs_power[34,1]
   + 2 evs_power[34,1] ^2 + 2 evs_power[35,0] ^2
   + 4 evs_power[35,0] * evs_power[35,1] + 2 evs_power[35,1] ^2
   + 2 evs_power[36,0] ^2 + 4 evs_power[36,0] * evs_power[36,1]
   + 2 evs_power[36,1] ^2 + 2 evs_power[37,0] ^2
   + 4 evs_power[37,0] * evs_power[37,1] + 2 evs_power[37,1] ^2
   + 2 evs_power[38,0] ^2 + 4 evs_power[38,0] * evs_power[38,1]
   + 2 evs_power[38,1] ^2 + 2 evs_power[39,0] ^2
   + 4 evs_power[39,0] * evs_power[39,1] + 2 evs_power[39,1] ^2
   + 2 evs_power[40,0] ^2 + 4 evs_power[40,0] * evs_power[40,1]
   + 2 evs_power[40,1] ^2 + 2 evs_power[41,0] ^2
   + 4 evs_power[41,0] * evs_power[41,1] + 2 evs_power[41,1] ^2
   + 2 evs_power[42,0] ^2 + 4 evs_power[42,0] * evs_power[42,1]
   + 2 evs_power[42,1] ^2 + 2 evs_power[43,0] ^2
   + 4 evs_power[43,0] * evs_power[43,1] + 2 evs_power[43,1] ^2
   + 2 evs_power[44,0] ^2 + 4 evs_power[44,0] * evs_power[44,1]
   + 2 evs_power[44,1] ^2 + 2 evs_power[45,0] ^2
   + 4 evs_power[45,0] * evs_power[45,1] + 2 evs_power[45,1] ^2
   + 2 evs_power[46,0] ^2 + 4 evs_power[46,0] * evs_power[46,1]
   + 2 evs_power[46,1] ^2 + 2 evs_power[47,0] ^2
   + 4 evs_power[47,0] * evs_power[47,1] + 2 evs_power[47,1] ^2
   + 2 evs_power[48,0] ^2 + 4 evs_power[48,0] * evs_power[48,1]
   + 2 evs_power[48,1] ^2 + 2 evs_power[49,0] ^2
   + 4 evs_power[49,0] * evs_power[49,1] + 2 evs_power[49,1] ^2
   + 2 evs_power[50,0] ^2 + 4 evs_power[50,0] * evs_power[50,1]
   + 2 evs_power[50,1] ^2 + 2 evs_power[51,0] ^2
   + 4 evs_power[51,0] * evs_power[51,1] + 2 evs_power[51,1] ^2
   + 2 evs_power[52,0] ^2 + 4 evs_power[52,0] * evs_power[52,1]
   + 2 evs_power[52,1] ^2 + 2 evs_power[53,0] ^2
   + 4 evs_power[53,0] * evs_power[53,1] + 2 evs_power[53,1] ^2
   + 2 evs_power[54,0] ^2 + 4 evs_power[54,0] * evs_power[54,1]
   + 2 evs_power[54,1] ^2 + 2 evs_power[55,0] ^2
   + 4 evs_power[55,0] * evs_power[55,1] + 2 evs_power[55,1] ^2
   + 2 evs_power[56,0] ^2 + 4 evs_power[56,0] * evs_power[56,1]
   + 2 evs_power[56,1] ^2 + 2 evs_power[57,0] ^2
   + 4 evs_power[57,0] * evs_power[57,1] + 2 evs_power[57,1] ^2
   + 2 evs_power[58,0] ^2 + 4 evs_power[58,0] * evs_power[58,1]
   + 2 evs_power[58,1] ^2 + 2 evs_power[59,0] ^2
   + 4 evs_power[59,0] * evs_power[59,1] + 2 evs_power[59,1] ^2
   + 2 evs_power[60,0] ^2 + 4 evs_power[60,0] * evs_power[60,1]
   + 2 evs_power[60,1] ^2 + 2 evs_power[61,0] ^2
   + 4 evs_power[61,0] * evs_power[61,1] + 2 evs_power[61,1] ^2
   + 2 evs_power[62,0] ^2 + 4 evs_power[62,0] * evs_power[62,1]
   + 2 evs_power[62,1] ^2 + 2 evs_power[63,0] ^2
   + 4 evs_power[63,0] * evs_power[63,1] + 2 evs_power[63,1] ^2
   + 2 evs_power[64,0] ^2 + 4 evs_power[64,0] * evs_power[64,1]
   + 2 evs_power[64,1] ^2 + 2 evs_power[65,0] ^2
   + 4 evs_power[65,0] * evs_power[65,1] + 2 evs_power[65,1] ^2
   + 2 evs_power[66,0] ^2 + 4 evs_power[66,0] * evs_power[66,1]
   + 2 evs_power[66,1] ^2 + 2 evs_power[67,0] ^2
   + 4 evs_power[67,0] * evs_power[67,1] + 2 evs_power[67,1] ^2
   + 2 evs_power[68,0] ^2 + 4 evs_power[68,0] * evs_power[68,1]
   + 2 evs_power[68,1] ^2 + 2 evs_power[69,0] ^2
   + 4 evs_power[69,0] * evs_power[69,1] + 2 evs_power[69,1] ^2
   + 2 evs_power[70,0] ^2 + 4 evs_power[70,0] * evs_power[70,1]
   + 2 evs_power[70,1] ^2 + 2 evs_power[71,0] ^2
   + 4 evs_power[71,0] * evs_power[71,1] + 2 evs_power[71,1] ^2
   + 2 evs_power[72,0] ^2 + 4 evs_power[72,0] * evs_power[72,1]
   + 2 evs_power[72,1] ^2 + 2 evs_power[73,0] ^2
   + 4 evs_power[73,0] * evs_power[73,1] + 2 evs_power[73,1] ^2
   + 2 evs_power[74,0] ^2 + 4 evs_power[74,0] * evs_power[74,1]
   + 2 evs_power[74,1] ^2 + 2 evs_power[75,0] ^2
   + 4 evs_power[75,0] * evs_power[75,1] + 2 evs_power[75,1] ^2
   + 2 evs_power[76,0] ^2 + 4 evs_power[76,0] * evs_power[76,1]
   + 2 evs_power[76,1] ^2 + 2 evs_power[77,0] ^2
   + 4 evs_power[77,0] * evs_power[77,1] + 2 evs_power[77,1] ^2
   + 2 evs_power[78,0] ^2 + 4 evs_power[78,0] * evs_power[78,1]
   + 2 evs_power[78,1] ^2 + 2 evs_power[79,0] ^2
   + 4 evs_power[79,0] * evs_power[79,1] + 2 evs_power[79,1] ^2
   + 2 evs_power[80,0] ^2 + 4 evs_power[80,0] * evs_power[80,1]
   + 2 evs_power[80,1] ^2 + 2 evs_power[81,0] ^2
   + 4 evs_power[81,0] * evs_power[81,1] + 2 evs_power[81,1] ^2
   + 2 evs_power[82,0] ^2 + 4 evs_power[82,0] * evs_power[82,1]
   + 2 evs_power[82,1] ^2 + 2 evs_power[83,0] ^2
   + 4 evs_power[83,0] * evs_power[83,1] + 2 evs_power[83,1] ^2
   + 2 evs_power[84,0] ^2 + 4 evs_power[84,0] * evs_power[84,1]
   + 2 evs_power[84,1] ^2 + 2 evs_power[85,0] ^2
   + 4 evs_power[85,0] * evs_power[85,1] + 2 evs_power[85,1] ^2
   + 2 evs_power[86,0] ^2 + 4 evs_power[86,0] * evs_power[86,1]
   + 2 evs_power[86,1] ^2 + 2 evs_power[87,0] ^2
   + 4 evs_power[87,0] * evs_power[87,1] + 2 evs_power[87,1] ^2
   + 2 evs_power[88,0] ^2 + 4 evs_power[88,0] * evs_power[88,1]
   + 2 evs_power[88,1] ^2 + 2 evs_power[89,0] ^2
   + 4 evs_power[89,0] * evs_power[89,1] + 2 evs_power[89,1] ^2
   + 2 evs_power[90,0] ^2 + 4 evs_power[90,0] * evs_power[90,1]
   + 2 evs_power[90,1] ^2 + 2 evs_power[91,0] ^2
   + 4 evs_power[91,0] * evs_power[91,1] + 2 evs_power[91,1] ^2
   + 2 evs_power[92,0] ^2 + 4 evs_power[92,0] * evs_power[92,1]
   + 2 evs_power[92,1] ^2 + 2 evs_power[93,0] ^2
   + 4 evs_power[93,0] * evs_power[93,1] + 2 evs_power[93,1] ^2
   + 2 evs_power[94,0] ^2 + 4 evs_power[94,0] * evs_power[94,1]
   + 2 evs_power[94,1] ^2 + 2 evs_power[95,0] ^2
   + 4 evs_power[95,0] * evs_power[95,1] + 2 evs_power[95,1] ^2 ] / 2 
Subject To
 MinBatteryCapacity_LB_time0_counter0: 0.25 evs_power[0,0] >= -31.59
 MaxBatteryCapacity_UB_time0_counter0: 0.25 evs_power[0,0] <= 8.41
 MinBatteryCapacity_LB_time1_counter0: 0.25 evs_power[0,0]
   + 0.25 evs_power[1,0] >= -31.59
 MaxBatteryCapacity_UB_time1_counter0: 0.25 evs_power[0,0]
   + 0.25 evs_power[1,0] <= 8.41
 DesiredCapacity_counter0: 0.25 evs_power[0,0] + 0.25 evs_power[1,0]
   >= -11.59
 power==0_EV_Departed_time2_counter0: evs_power[2,0] = 0
 power==0_EV_Departed_time3_counter0: evs_power[3,0] = 0
 power==0_EV_Departed_time4_counter0: evs_power[4,0] = 0
 power==0_EV_Departed_time5_counter0: evs_power[5,0] = 0
 power==0_EV_Departed_time6_counter0: evs_power[6,0] = 0
 power==0_EV_Departed_time7_counter0: evs_power[7,0] = 0
 power==0_EV_Departed_time8_counter0: evs_power[8,0] = 0
 power==0_EV_Departed_time9_counter0: evs_power[9,0] = 0
 power==0_EV_Departed_time10_counter0: evs_power[10,0] = 0
 power==0_EV_Departed_time11_counter0: evs_power[11,0] = 0
 power==0_EV_Departed_time12_counter0: evs_power[12,0] = 0
 power==0_EV_Departed_time13_counter0: evs_power[13,0] = 0
 power==0_EV_Departed_time14_counter0: evs_power[14,0] = 0
 power==0_EV_Departed_time15_counter0: evs_power[15,0] = 0
 power==0_EV_Departed_time16_counter0: evs_power[16,0] = 0
 power==0_EV_Departed_time17_counter0: evs_power[17,0] = 0
 power==0_EV_Departed_time18_counter0: evs_power[18,0] = 0
 power==0_EV_Departed_time19_counter0: evs_power[19,0] = 0
 power==0_EV_Departed_time20_counter0: evs_power[20,0] = 0
 power==0_EV_Departed_time21_counter0: evs_power[21,0] = 0
 power==0_EV_Departed_time22_counter0: evs_power[22,0] = 0
 power==0_EV_Departed_time23_counter0: evs_power[23,0] = 0
 power==0_EV_Departed_time24_counter0: evs_power[24,0] = 0
 power==0_EV_Departed_time25_counter0: evs_power[25,0] = 0
 power==0_EV_Departed_time26_counter0: evs_power[26,0] = 0
 power==0_EV_Departed_time27_counter0: evs_power[27,0] = 0
 power==0_EV_Departed_time28_counter0: evs_power[28,0] = 0
 power==0_EV_Departed_time29_counter0: evs_power[29,0] = 0
 power==0_EV_Departed_time30_counter0: evs_power[30,0] = 0
 power==0_EV_Departed_time31_counter0: evs_power[31,0] = 0
 power==0_EV_Departed_time32_counter0: evs_power[32,0] = 0
 power==0_EV_Departed_time33_counter0: evs_power[33,0] = 0
 power==0_EV_Departed_time34_counter0: evs_power[34,0] = 0
 power==0_EV_Departed_time35_counter0: evs_power[35,0] = 0
 power==0_EV_Departed_time36_counter0: evs_power[36,0] = 0
 power==0_EV_Departed_time37_counter0: evs_power[37,0] = 0
 power==0_EV_Departed_time38_counter0: evs_power[38,0] = 0
 power==0_EV_Departed_time39_counter0: evs_power[39,0] = 0
 power==0_EV_Departed_time40_counter0: evs_power[40,0] = 0
 power==0_EV_Departed_time41_counter0: evs_power[41,0] = 0
 power==0_EV_Departed_time42_counter0: evs_power[42,0] = 0
 power==0_EV_Departed_time43_counter0: evs_power[43,0] = 0
 power==0_EV_Departed_time44_counter0: evs_power[44,0] = 0
 power==0_EV_Departed_time45_counter0: evs_power[45,0] = 0
 power==0_EV_Departed_time46_counter0: evs_power[46,0] = 0
 power==0_EV_Departed_time47_counter0: evs_power[47,0] = 0
 power==0_EV_Departed_time48_counter0: evs_power[48,0] = 0
 power==0_EV_Departed_time49_counter0: evs_power[49,0] = 0
 power==0_EV_Departed_time50_counter0: evs_power[50,0] = 0
 power==0_EV_Departed_time51_counter0: evs_power[51,0] = 0
 power==0_EV_Departed_time52_counter0: evs_power[52,0] = 0
 power==0_EV_Departed_time53_counter0: evs_power[53,0] = 0
 power==0_EV_Departed_time54_counter0: evs_power[54,0] = 0
 power==0_EV_Departed_time55_counter0: evs_power[55,0] = 0
 power==0_EV_Departed_time56_counter0: evs_power[56,0] = 0
 power==0_EV_Departed_time57_counter0: evs_power[57,0] = 0
 power==0_EV_Departed_time58_counter0: evs_power[58,0] = 0
 power==0_EV_Departed_time59_counter0: evs_power[59,0] = 0
 power==0_EV_Departed_time60_counter0: evs_power[60,0] = 0
 power==0_EV_Departed_time61_counter0: evs_power[61,0] = 0
 power==0_EV_Departed_time62_counter0: evs_power[62,0] = 0
 power==0_EV_Departed_time63_counter0: evs_power[63,0] = 0
 power==0_EV_Departed_time64_counter0: evs_power[64,0] = 0
 power==0_EV_Departed_time65_counter0: evs_power[65,0] = 0
 power==0_EV_Departed_time66_counter0: evs_power[66,0] = 0
 power==0_EV_Departed_time67_counter0: evs_power[67,0] = 0
 power==0_EV_Departed_time68_counter0: evs_power[68,0] = 0
 power==0_EV_Departed_time69_counter0: evs_power[69,0] = 0
 power==0_EV_Departed_time70_counter0: evs_power[70,0] = 0
 power==0_EV_Departed_time71_counter0: evs_power[71,0] = 0
 power==0_EV_Departed_time72_counter0: evs_power[72,0] = 0
 power==0_EV_Departed_time73_counter0: evs_power[73,0] = 0
 power==0_EV_Departed_time74_counter0: evs_power[74,0] = 0
 power==0_EV_Departed_time75_counter0: evs_power[75,0] = 0
 power==0_EV_Departed_time76_counter0: evs_power[76,0] = 0
 power==0_EV_Departed_time77_counter0: evs_power[77,0] = 0
 power==0_EV_Departed_time78_counter0: evs_power[78,0] = 0
 power==0_EV_Departed_time79_counter0: evs_power[79,0] = 0
 power==0_EV_Departed_time80_counter0: evs_power[80,0] = 0
 power==0_EV_Departed_time81_counter0: evs_power[81,0] = 0
 power==0_EV_Departed_time82_counter0: evs_power[82,0] = 0
 power==0_EV_Departed_time83_counter0: evs_power[83,0] = 0
 power==0_EV_Departed_time84_counter0: evs_power[84,0] = 0
 power==0_EV_Departed_time85_counter0: evs_power[85,0] = 0
 power==0_EV_Departed_time86_counter0: evs_power[86,0] = 0
 power==0_EV_Departed_time87_counter0: evs_power[87,0] = 0
 power==0_EV_Departed_time88_counter0: evs_power[88,0] = 0
 power==0_EV_Departed_time89_counter0: evs_power[89,0] = 0
 power==0_EV_Departed_time90_counter0: evs_power[90,0] = 0
 power==0_EV_Departed_time91_counter0: evs_power[91,0] = 0
 power==0_EV_Departed_time92_counter0: evs_power[92,0] = 0
 power==0_EV_Departed_time93_counter0: evs_power[93,0] = 0
 power==0_EV_Departed_time94_counter0: evs_power[94,0] = 0
 power==0_EV_Departed_time95_counter0: evs_power[95,0] = 0
 power==0_EV_Departed_time0_counter1: evs_power[0,1] = 0
 power==0_EV_Departed_time1_counter1: evs_power[1,1] = 0
 power==0_EV_Departed_time2_counter1: evs_power[2,1] = 0
 power==0_EV_Departed_time3_counter1: evs_power[3,1] = 0
 power==0_EV_Departed_time4_counter1: evs_power[4,1] = 0
 power==0_EV_Departed_time5_counter1: evs_power[5,1] = 0
 power==0_EV_Departed_time6_counter1: evs_power[6,1] = 0
 power==0_EV_Departed_time7_counter1: evs_power[7,1] = 0
 power==0_EV_Departed_time8_counter1: evs_power[8,1] = 0
 power==0_EV_Departed_time9_counter1: evs_power[9,1] = 0
 power==0_EV_Departed_time10_counter1: evs_power[10,1] = 0
 power==0_EV_Departed_time11_counter1: evs_power[11,1] = 0
 power==0_EV_Departed_time12_counter1: evs_power[12,1] = 0
 power==0_EV_Departed_time13_counter1: evs_power[13,1] = 0
 power==0_EV_Departed_time14_counter1: evs_power[14,1] = 0
 power==0_EV_Departed_time15_counter1: evs_power[15,1] = 0
 power==0_EV_Departed_time16_counter1: evs_power[16,1] = 0
 power==0_EV_Departed_time17_counter1: evs_power[17,1] = 0
 power==0_EV_Departed_time18_counter1: evs_power[18,1] = 0
 power==0_EV_Departed_time19_counter1: evs_power[19,1] = 0
 power==0_EV_Departed_time20_counter1: evs_power[20,1] = 0
 power==0_EV_Departed_time21_counter1: evs_power[21,1] = 0
 power==0_EV_Departed_time22_counter1: evs_power[22,1] = 0
 power==0_EV_Departed_time23_counter1: evs_power[23,1] = 0
 power==0_EV_Departed_time24_counter1: evs_power[24,1] = 0
 power==0_EV_Departed_time25_counter1: evs_power[25,1] = 0
 power==0_EV_Departed_time26_counter1: evs_power[26,1] = 0
 power==0_EV_Departed_time27_counter1: evs_power[27,1] = 0
 power==0_EV_Departed_time28_counter1: evs_power[28,1] = 0
 power==0_EV_Departed_time29_counter1: evs_power[29,1] = 0
 power==0_EV_Departed_time30_counter1: evs_power[30,1] = 0
 power==0_EV_Departed_time31_counter1: evs_power[31,1] = 0
 power==0_EV_Departed_time32_counter1: evs_power[32,1] = 0
 power==0_EV_Departed_time33_counter1: evs_power[33,1] = 0
 power==0_EV_Departed_time34_counter1: evs_power[34,1] = 0
 power==0_EV_Departed_time35_counter1: evs_power[35,1] = 0
 power==0_EV_Departed_time36_counter1: evs_power[36,1] = 0
 power==0_EV_Departed_time37_counter1: evs_power[37,1] = 0
 power==0_EV_Departed_time38_counter1: evs_power[38,1] = 0
 power==0_EV_Departed_time39_counter1: evs_power[39,1] = 0
 power==0_EV_Departed_time40_counter1: evs_power[40,1] = 0
 power==0_EV_Departed_time41_counter1: evs_power[41,1] = 0
 power==0_EV_Departed_time42_counter1: evs_power[42,1] = 0
 power==0_EV_Departed_time43_counter1: evs_power[43,1] = 0
 power==0_EV_Departed_time44_counter1: evs_power[44,1] = 0
 power==0_EV_Departed_time45_counter1: evs_power[45,1] = 0
 power==0_EV_Departed_time46_counter1: evs_power[46,1] = 0
 power==0_EV_Departed_time47_counter1: evs_power[47,1] = 0
 power==0_EV_Departed_time48_counter1: evs_power[48,1] = 0
 power==0_EV_Departed_time49_counter1: evs_power[49,1] = 0
 power==0_EV_Departed_time50_counter1: evs_power[50,1] = 0
 power==0_EV_Departed_time51_counter1: evs_power[51,1] = 0
 power==0_EV_Departed_time52_counter1: evs_power[52,1] = 0
 power==0_EV_Departed_time53_counter1: evs_power[53,1] = 0
 power==0_EV_Departed_time54_counter1: evs_power[54,1] = 0
 power==0_EV_Departed_time55_counter1: evs_power[55,1] = 0
 power==0_EV_Departed_time56_counter1: evs_power[56,1] = 0
 power==0_EV_Departed_time57_counter1: evs_power[57,1] = 0
 power==0_EV_Departed_time58_counter1: evs_power[58,1] = 0
 power==0_EV_Departed_time59_counter1: evs_power[59,1] = 0
 power==0_EV_Departed_time60_counter1: evs_power[60,1] = 0
 power==0_EV_Departed_time61_counter1: evs_power[61,1] = 0
 power==0_EV_Departed_time62_counter1: evs_power[62,1] = 0
 power==0_EV_Departed_time63_counter1: evs_power[63,1] = 0
 power==0_EV_Departed_time64_counter1: evs_power[64,1] = 0
 power==0_EV_Departed_time65_counter1: evs_power[65,1] = 0
 power==0_EV_Departed_time66_counter1: evs_power[66,1] = 0
 power==0_EV_Departed_time67_counter1: evs_power[67,1] = 0
 power==0_EV_Departed_time68_counter1: evs_power[68,1] = 0
 power==0_EV_Departed_time69_counter1: evs_power[69,1] = 0
 power==0_EV_Departed_time70_counter1: evs_power[70,1] = 0
 power==0_EV_Departed_time71_counter1: evs_power[71,1] = 0
 power==0_EV_Departed_time72_counter1: evs_power[72,1] = 0
 power==0_EV_Departed_time73_counter1: evs_power[73,1] = 0
 power==0_EV_Departed_time74_counter1: evs_power[74,1] = 0
 power==0_EV_Departed_time75_counter1: evs_power[75,1] = 0
 power==0_EV_Departed_time76_counter1: evs_power[76,1] = 0
 power==0_EV_Departed_time77_counter1: evs_power[77,1] = 0
 power==0_EV_Departed_time78_counter1: evs_power[78,1] = 0
 power==0_EV_Departed_time79_counter1: evs_power[79,1] = 0
 power==0_EV_Departed_time80_counter1: evs_power[80,1] = 0
 power==0_EV_Departed_time81_counter1: evs_power[81,1] = 0
 power==0_EV_Departed_time82_counter1: evs_power[82,1] = 0
 power==0_EV_Departed_time83_counter1: evs_power[83,1] = 0
 power==0_EV_Departed_time84_counter1: evs_power[84,1] = 0
 power==0_EV_Departed_time85_counter1: evs_power[85,1] = 0
 power==0_EV_Departed_time86_counter1: evs_power[86,1] = 0
 power==0_EV_Departed_time87_counter1: evs_power[87,1] = 0
 power==0_EV_Departed_time88_counter1: evs_power[88,1] = 0
 power==0_EV_Departed_time89_counter1: evs_power[89,1] = 0
 power==0_EV_Departed_time90_counter1: evs_power[90,1] = 0
 power==0_EV_Departed_time91_counter1: evs_power[91,1] = 0
 power==0_EV_Departed_time92_counter1: evs_power[92,1] = 0
 power==0_EV_Departed_time93_counter1: evs_power[93,1] = 0
 power==0_EV_Departed_time94_counter1: evs_power[94,1] = 0
 power==0_EV_Departed_time95_counter1: evs_power[95,1] = 0
Bounds
 -22.30881440148714 <= evs_power[0,0] <= 22.30881440148714
 -22.30881440148714 <= evs_power[0,1] <= 22.30881440148714
 -22.30881440148714 <= evs_power[1,0] <= 22.30881440148714
 -22.30881440148714 <= evs_power[1,1] <= 22.30881440148714
 -22.30881440148714 <= evs_power[2,0] <= 22.30881440148714
 -22.30881440148714 <= evs_power[2,1] <= 22.30881440148714
 -22.30881440148714 <= evs_power[3,0] <= 22.30881440148714
 -22.30881440148714 <= evs_power[3,1] <= 22.30881440148714
 -22.30881440148714 <= evs_power[4,0] <= 22.30881440148714
 -22.30881440148714 <= evs_power[4,1] <= 22.30881440148714
 -22.30881440148714 <= evs_power[5,0] <= 22.30881440148714
 -22.30881440148714 <= evs_power[5,1] <= 22.30881440148714
 -22.30881440148714 <= evs_power[6,0] <= 22.30881440148714
 -22.30881440148714 <= evs_power[6,1] <= 22.30881440148714
 -22.30881440148714 <= evs_power[7,0] <= 22.30881440148714
 -22.30881440148714 <= evs_power[7,1] <= 22.30881440148714
 -22.30881440148714 <= evs_power[8,0] <= 22.30881440148714
 -22.30881440148714 <= evs_power[8,1] <= 22.30881440148714
 -22.30881440148714 <= evs_power[9,0] <= 22.30881440148714
 -22.30881440148714 <= evs_power[9,1] <= 22.30881440148714
 -22.30881440148714 <= evs_power[10,0] <= 22.30881440148714
 -22.30881440148714 <= evs_power[10,1] <= 22.30881440148714
 -22.30881440148714 <= evs_power[11,0] <= 22.30881440148714
 -22.30881440148714 <= evs_power[11,1] <= 22.30881440148714
 -22.30881440148714 <= evs_power[12,0] <= 22.30881440148714
 -22.30881440148714 <= evs_power[12,1] <= 22.30881440148714
 -22.30881440148714 <= evs_power[13,0] <= 22.30881440148714
 -22.30881440148714 <= evs_power[13,1] <= 22.30881440148714
 -22.30881440148714 <= evs_power[14,0] <= 22.30881440148714
 -22.30881440148714 <= evs_power[14,1] <= 22.30881440148714
 -22.30881440148714 <= evs_power[15,0] <= 22.30881440148714
 -22.30881440148714 <= evs_power[15,1] <= 22.30881440148714
 -22.30881440148714 <= evs_power[16,0] <= 22.30881440148714
 -22.30881440148714 <= evs_power[16,1] <= 22.30881440148714
 -22.30881440148714 <= evs_power[17,0] <= 22.30881440148714
 -22.30881440148714 <= evs_power[17,1] <= 22.30881440148714
 -22.30881440148714 <= evs_power[18,0] <= 22.30881440148714
 -22.30881440148714 <= evs_power[18,1] <= 22.30881440148714
 -22.30881440148714 <= evs_power[19,0] <= 22.30881440148714
 -22.30881440148714 <= evs_power[19,1] <= 22.30881440148714
 -22.30881440148714 <= evs_power[20,0] <= 22.30881440148714
 -22.30881440148714 <= evs_power[20,1] <= 22.30881440148714
 -22.30881440148714 <= evs_power[21,0] <= 22.30881440148714
 -22.30881440148714 <= evs_power[21,1] <= 22.30881440148714
 -22.30881440148714 <= evs_power[22,0] <= 22.30881440148714
 -22.30881440148714 <= evs_power[22,1] <= 22.30881440148714
 -22.30881440148714 <= evs_power[23,0] <= 22.30881440148714
 -22.30881440148714 <= evs_power[23,1] <= 22.30881440148714
 -22.30881440148714 <= evs_power[24,0] <= 22.30881440148714
 -22.30881440148714 <= evs_power[24,1] <= 22.30881440148714
 -22.30881440148714 <= evs_power[25,0] <= 22.30881440148714
 -22.30881440148714 <= evs_power[25,1] <= 22.30881440148714
 -22.30881440148714 <= evs_power[26,0] <= 22.30881440148714
 -22.30881440148714 <= evs_power[26,1] <= 22.30881440148714
 -22.30881440148714 <= evs_power[27,0] <= 22.30881440148714
 -22.30881440148714 <= evs_power[27,1] <= 22.30881440148714
 -22.30881440148714 <= evs_power[28,0] <= 22.30881440148714
 -22.30881440148714 <= evs_power[28,1] <= 22.30881440148714
 -22.30881440148714 <= evs_power[29,0] <= 22.30881440148714
 -22.30881440148714 <= evs_power[29,1] <= 22.30881440148714
 -22.30881440148714 <= evs_power[30,0] <= 22.30881440148714
 -22.30881440148714 <= evs_power[30,1] <= 22.30881440148714
 -22.30881440148714 <= evs_power[31,0] <= 22.30881440148714
 -22.30881440148714 <= evs_power[31,1] <= 22.30881440148714
 -22.30881440148714 <= evs_power[32,0] <= 22.30881440148714
 -22.30881440148714 <= evs_power[32,1] <= 22.30881440148714
 -22.30881440148714 <= evs_power[33,0] <= 22.30881440148714
 -22.30881440148714 <= evs_power[33,1] <= 22.30881440148714
 -22.30881440148714 <= evs_power[34,0] <= 22.30881440148714
 -22.30881440148714 <= evs_power[34,1] <= 22.30881440148714
 -22.30881440148714 <= evs_power[35,0] <= 22.30881440148714
 -22.30881440148714 <= evs_power[35,1] <= 22.30881440148714
 -22.30881440148714 <= evs_power[36,0] <= 22.30881440148714
 -22.30881440148714 <= evs_power[36,1] <= 22.30881440148714
 -22.30881440148714 <= evs_power[37,0] <= 22.30881440148714
 -22.30881440148714 <= evs_power[37,1] <= 22.30881440148714
 -22.30881440148714 <= evs_power[38,0] <= 22.30881440148714
 -22.30881440148714 <= evs_power[38,1] <= 22.30881440148714
 -22.30881440148714 <= evs_power[39,0] <= 22.30881440148714
 -22.30881440148714 <= evs_power[39,1] <= 22.30881440148714
 -22.30881440148714 <= evs_power[40,0] <= 22.30881440148714
 -22.30881440148714 <= evs_power[40,1] <= 22.30881440148714
 -22.30881440148714 <= evs_power[41,0] <= 22.30881440148714
 -22.30881440148714 <= evs_power[41,1] <= 22.30881440148714
 -22.30881440148714 <= evs_power[42,0] <= 22.30881440148714
 -22.30881440148714 <= evs_power[42,1] <= 22.30881440148714
 -22.30881440148714 <= evs_power[43,0] <= 22.30881440148714
 -22.30881440148714 <= evs_power[43,1] <= 22.30881440148714
 -22.30881440148714 <= evs_power[44,0] <= 22.30881440148714
 -22.30881440148714 <= evs_power[44,1] <= 22.30881440148714
 -22.30881440148714 <= evs_power[45,0] <= 22.30881440148714
 -22.30881440148714 <= evs_power[45,1] <= 22.30881440148714
 -22.30881440148714 <= evs_power[46,0] <= 22.30881440148714
 -22.30881440148714 <= evs_power[46,1] <= 22.30881440148714
 -22.30881440148714 <= evs_power[47,0] <= 22.30881440148714
 -22.30881440148714 <= evs_power[47,1] <= 22.30881440148714
 -22.30881440148714 <= evs_power[48,0] <= 22.30881440148714
 -22.30881440148714 <= evs_power[48,1] <= 22.30881440148714
 -22.30881440148714 <= evs_power[49,0] <= 22.30881440148714
 -22.30881440148714 <= evs_power[49,1] <= 22.30881440148714
 -22.30881440148714 <= evs_power[50,0] <= 22.30881440148714
 -22.30881440148714 <= evs_power[50,1] <= 22.30881440148714
 -22.30881440148714 <= evs_power[51,0] <= 22.30881440148714
 -22.30881440148714 <= evs_power[51,1] <= 22.30881440148714
 -22.30881440148714 <= evs_power[52,0] <= 22.30881440148714
 -22.30881440148714 <= evs_power[52,1] <= 22.30881440148714
 -22.30881440148714 <= evs_power[53,0] <= 22.30881440148714
 -22.30881440148714 <= evs_power[53,1] <= 22.30881440148714
 -22.30881440148714 <= evs_power[54,0] <= 22.30881440148714
 -22.30881440148714 <= evs_power[54,1] <= 22.30881440148714
 -22.30881440148714 <= evs_power[55,0] <= 22.30881440148714
 -22.30881440148714 <= evs_power[55,1] <= 22.30881440148714
 -22.30881440148714 <= evs_power[56,0] <= 22.30881440148714
 -22.30881440148714 <= evs_power[56,1] <= 22.30881440148714
 -22.30881440148714 <= evs_power[57,0] <= 22.30881440148714
 -22.30881440148714 <= evs_power[57,1] <= 22.30881440148714
 -22.30881440148714 <= evs_power[58,0] <= 22.30881440148714
 -22.30881440148714 <= evs_power[58,1] <= 22.30881440148714
 -22.30881440148714 <= evs_power[59,0] <= 22.30881440148714
 -22.30881440148714 <= evs_power[59,1] <= 22.30881440148714
 -22.30881440148714 <= evs_power[60,0] <= 22.30881440148714
 -22.30881440148714 <= evs_power[60,1] <= 22.30881440148714
 -22.30881440148714 <= evs_power[61,0] <= 22.30881440148714
 -22.30881440148714 <= evs_power[61,1] <= 22.30881440148714
 -22.30881440148714 <= evs_power[62,0] <= 22.30881440148714
 -22.30881440148714 <= evs_power[62,1] <= 22.30881440148714
 -22.30881440148714 <= evs_power[63,0] <= 22.30881440148714
 -22.30881440148714 <= evs_power[63,1] <= 22.30881440148714
 -22.30881440148714 <= evs_power[64,0] <= 22.30881440148714
 -22.30881440148714 <= evs_power[64,1] <= 22.30881440148714
 -22.30881440148714 <= evs_power[65,0] <= 22.30881440148714
 -22.30881440148714 <= evs_power[65,1] <= 22.30881440148714
 -22.30881440148714 <= evs_power[66,0] <= 22.30881440148714
 -22.30881440148714 <= evs_power[66,1] <= 22.30881440148714
 -22.30881440148714 <= evs_power[67,0] <= 22.30881440148714
 -22.30881440148714 <= evs_power[67,1] <= 22.30881440148714
 -22.30881440148714 <= evs_power[68,0] <= 22.30881440148714
 -22.30881440148714 <= evs_power[68,1] <= 22.30881440148714
 -22.30881440148714 <= evs_power[69,0] <= 22.30881440148714
 -22.30881440148714 <= evs_power[69,1] <= 22.30881440148714
 -22.30881440148714 <= evs_power[70,0] <= 22.30881440148714
 -22.30881440148714 <= evs_power[70,1] <= 22.30881440148714
 -22.30881440148714 <= evs_power[71,0] <= 22.30881440148714
 -22.30881440148714 <= evs_power[71,1] <= 22.30881440148714
 -22.30881440148714 <= evs_power[72,0] <= 22.30881440148714
 -22.30881440148714 <= evs_power[72,1] <= 22.30881440148714
 -22.30881440148714 <= evs_power[73,0] <= 22.30881440148714
 -22.30881440148714 <= evs_power[73,1] <= 22.30881440148714
 -22.30881440148714 <= evs_power[74,0] <= 22.30881440148714
 -22.30881440148714 <= evs_power[74,1] <= 22.30881440148714
 -22.30881440148714 <= evs_power[75,0] <= 22.30881440148714
 -22.30881440148714 <= evs_power[75,1] <= 22.30881440148714
 -22.30881440148714 <= evs_power[76,0] <= 22.30881440148714
 -22.30881440148714 <= evs_power[76,1] <= 22.30881440148714
 -22.30881440148714 <= evs_power[77,0] <= 22.30881440148714
 -22.30881440148714 <= evs_power[77,1] <= 22.30881440148714
 -22.30881440148714 <= evs_power[78,0] <= 22.30881440148714
 -22.30881440148714 <= evs_power[78,1] <= 22.30881440148714
 -22.30881440148714 <= evs_power[79,0] <= 22.30881440148714
 -22.30881440148714 <= evs_power[79,1] <= 22.30881440148714
 -22.30881440148714 <= evs_power[80,0] <= 22.30881440148714
 -22.30881440148714 <= evs_power[80,1] <= 22.30881440148714
 -22.30881440148714 <= evs_power[81,0] <= 22.30881440148714
 -22.30881440148714 <= evs_power[81,1] <= 22.30881440148714
 -22.30881440148714 <= evs_power[82,0] <= 22.30881440148714
 -22.30881440148714 <= evs_power[82,1] <= 22.30881440148714
 -22.30881440148714 <= evs_power[83,0] <= 22.30881440148714
 -22.30881440148714 <= evs_power[83,1] <= 22.30881440148714
 -22.30881440148714 <= evs_power[84,0] <= 22.30881440148714
 -22.30881440148714 <= evs_power[84,1] <= 22.30881440148714
 -22.30881440148714 <= evs_power[85,0] <= 22.30881440148714
 -22.30881440148714 <= evs_power[85,1] <= 22.30881440148714
 -22.30881440148714 <= evs_power[86,0] <= 22.30881440148714
 -22.30881440148714 <= evs_power[86,1] <= 22.30881440148714
 -22.30881440148714 <= evs_power[87,0] <= 22.30881440148714
 -22.30881440148714 <= evs_power[87,1] <= 22.30881440148714
 -22.30881440148714 <= evs_power[88,0] <= 22.30881440148714
 -22.30881440148714 <= evs_power[88,1] <= 22.30881440148714
 -22.30881440148714 <= evs_power[89,0] <= 22.30881440148714
 -22.30881440148714 <= evs_power[89,1] <= 22.30881440148714
 -22.30881440148714 <= evs_power[90,0] <= 22.30881440148714
 -22.30881440148714 <= evs_power[90,1] <= 22.30881440148714
 -22.30881440148714 <= evs_power[91,0] <= 22.30881440148714
 -22.30881440148714 <= evs_power[91,1] <= 22.30881440148714
 -22.30881440148714 <= evs_power[92,0] <= 22.30881440148714
 -22.30881440148714 <= evs_power[92,1] <= 22.30881440148714
 -22.30881440148714 <= evs_power[93,0] <= 22.30881440148714
 -22.30881440148714 <= evs_power[93,1] <= 22.30881440148714
 -22.30881440148714 <= evs_power[94,0] <= 22.30881440148714
 -22.30881440148714 <= evs_power[94,1] <= 22.30881440148714
 -22.30881440148714 <= evs_power[95,0] <= 22.30881440148714
 -22.30881440148714 <= evs_power[95,1] <= 22.30881440148714
 Constant = 1
End
